(set-logic ALL)
(set-option :produce-models true)
(declare-sort BoundSet 0)
(declare-sort UnboundSet 0)
(declare-fun IsWearingAprons (BoundSet) Bool)
(declare-fun AreInStore (BoundSet) Bool)
(assert (not (=> (exists ((b BoundSet)) (exists ((a BoundSet)) (and (IsWearingAprons a) (AreInStore b)))) (exists ((d BoundSet)) (IsWearingAprons d)))))
(check-sat)
(get-model)